58216.9
263 197 200 262 199 198 194 193 137 136 196 195 203 202 201 261 260 204 205 206 189 190 140 141 139 138 192 191 188 207 208 209 259 258 210 211 212 185 186 144 145 142 143 187 183 184 213 214 215 257 256 216 217 218 181 182 148 149 146 147 151 179 180 219 220 221 255 254 224 223 222 178 177 153 152 150 155 154 176 175 227 226 225 253 252 230 229 228 174 173 157 156 159 158 172 171 233 232 231 251 249 250 248 234 235 236 237 238 241 247 240 239 169 168 161 160 163 162 167 166 244 243 242 246 245 165 164 170 132 133 134 135 0 1 2 37 36 35 56 55 119 118 117 116 115 114 58 57 34 33 32 31 30 29 60 59 113 112 111 110 109 108 62 61 28 27 26 25 24 23 64 63 107 106 105 104 103 102 66 65 22 21 20 19 18 17 68 67 101 100 99 98 97 96 70 69 16 15 14 13 12 11 72 71 95 94 93 92 131 91 90 89 88 87 86 85 84 83 75 74 10 9 8 6 5 77 76 82 81 80 79 78 4 7 73 3 38 39 40 53 54 120 121 122 123 124 125 51 52 41 42 43 44 45 46 49 50 126 127 128 129 130 48 47 
